275 5
10 10 10 10 10 

0 0 0 0 0 0 4 2 14 26 38 
0 0 0 0 0 0 2 3 4 
2 1 0 0 0 0 2 7 5 
1 4 0 0 0 0 2 7 6 
7 2 0 0 0 0 1 6 
2 3 0 0 0 0 2 12 8 
8 2 0 0 0 0 2 12 8 
8 2 0 0 0 0 1 9 
10 4 0 0 0 0 1 10 
7 2 0 0 0 0 1 11 
9 3 0 0 0 0 2 13 248 
5 2 0 0 0 0 1 13 
0 0 0 0 0 0 1 50 
0 0 0 0 0 0 3 15 16 44 
10 0 0 0 0 1 2 20 18 
10 0 0 0 0 1 1 17 
3 0 0 0 0 4 1 18 
1 0 0 0 0 3 1 19 
2 0 0 0 0 2 2 24 21 
1 0 0 0 0 3 2 24 21 
2 0 0 0 0 4 1 22 
10 0 0 0 0 3 1 23 
5 0 0 0 0 1 1 25 
2 0 0 0 0 3 1 25 
0 0 0 0 0 0 1 50 
0 0 0 0 0 0 3 27 30 31 
4 0 1 0 0 0 1 28 
8 0 2 0 0 0 1 29 
4 0 2 0 0 0 3 36 32 48 
7 0 4 0 0 0 1 32 
9 0 1 0 0 0 2 36 34 
5 0 6 0 0 0 1 33 
1 0 2 0 0 0 1 34 
1 0 1 0 0 0 1 35 
10 0 2 0 0 0 1 37 
7 0 4 0 0 0 1 37 
0 0 0 0 0 0 1 50 
0 0 0 0 0 0 4 39 42 45 48 
2 0 0 0 0 1 1 40 
3 0 0 0 0 3 1 41 
5 0 0 0 0 5 1 43 
1 0 0 0 0 2 1 43 
8 0 0 0 0 3 1 44 
9 0 0 0 0 2 2 46 85 
10 0 0 0 0 2 1 46 
1 0 0 0 0 1 1 47 
7 0 0 0 0 5 1 49 
1 0 0 0 0 1 1 49 
0 0 0 0 0 0 1 50 
0 0 0 0 0 0 4 51 63 75 87 
0 0 0 0 0 0 2 52 53 
3 0 0 0 1 0 2 56 54 
6 0 0 0 1 0 2 56 55 
9 0 0 0 4 0 2 55 248 
10 0 0 0 1 0 2 58 57 
9 0 0 0 6 0 2 58 57 
9 0 0 0 1 0 1 59 
7 0 0 0 2 0 1 59 
2 0 0 0 3 0 1 60 
4 0 0 0 4 0 1 61 
7 0 0 0 2 0 1 62 
0 0 0 0 0 0 1 99 
0 0 0 0 0 0 2 64 69 
7 0 0 0 1 0 2 68 65 
7 0 0 0 3 0 1 66 
6 0 0 0 3 0 1 67 
4 0 0 0 3 0 1 70 
1 0 0 0 5 0 2 70 246 
4 0 0 0 2 0 1 71 
6 0 0 0 2 0 1 72 
3 0 0 0 2 0 1 72 
10 0 0 0 1 0 1 73 
5 0 0 0 3 0 1 74 
0 0 0 0 0 0 1 99 
0 0 0 0 0 0 2 76 79 
6 1 0 0 0 0 2 83 77 
10 4 0 0 0 0 1 78 
1 2 0 0 0 0 2 85 80 
1 3 0 0 0 0 3 83 80 168 
3 1 0 0 0 0 1 81 
8 4 0 0 0 0 1 82 
1 3 0 0 0 0 1 84 
9 2 0 0 0 0 1 84 
7 1 0 0 0 0 1 86 
7 4 0 0 0 0 1 86 
0 0 0 0 0 0 1 99 
0 0 0 0 0 0 1 88 
2 0 0 0 1 0 2 90 89 
1 0 0 0 1 0 2 93 91 
9 0 0 0 1 0 3 93 92 233 
7 0 0 0 3 0 1 92 
3 0 0 0 2 0 1 94 
5 0 0 0 2 0 1 94 
7 0 0 0 2 0 1 95 
7 0 0 0 7 0 2 97 96 
4 0 0 0 3 0 1 98 
6 0 0 0 3 0 1 98 
0 0 0 0 0 0 1 99 
0 0 0 0 0 0 4 100 112 124 136 
0 0 0 0 0 0 2 101 102 
6 1 0 0 0 0 2 110 103 
9 3 0 0 0 0 2 110 103 
8 2 0 0 0 0 1 104 
5 3 0 0 0 0 2 109 105 
1 3 0 0 0 0 1 106 
10 5 0 0 0 0 1 107 
9 3 0 0 0 0 1 108 
10 2 0 0 0 0 1 111 
6 1 0 0 0 0 2 111 217 
8 2 0 0 0 0 1 111 
0 0 0 0 0 0 1 148 
0 0 0 0 0 0 2 113 116 
3 1 0 0 0 0 1 114 
3 3 0 0 0 0 1 115 
5 2 0 0 0 0 2 120 117 
2 4 0 0 0 0 3 122 120 118 
2 2 0 0 0 0 2 122 118 
2 2 0 0 0 0 1 119 
5 3 0 0 0 0 1 121 
9 3 0 0 0 0 1 121 
1 2 0 0 0 0 1 123 
9 3 0 0 0 0 1 123 
0 0 0 0 0 0 1 148 
0 0 0 0 0 0 1 125 
4 0 0 0 1 0 2 127 126 
8 0 0 0 4 0 2 131 129 
2 0 0 0 3 0 1 128 
9 0 0 0 2 0 1 129 
3 0 0 0 4 0 1 130 
9 0 0 0 2 0 2 134 132 
2 0 0 0 3 0 2 134 132 
1 0 0 0 3 0 1 133 
4 0 0 0 2 0 1 135 
8 0 0 0 1 0 1 135 
0 0 0 0 0 0 1 148 
0 0 0 0 0 0 2 137 139 
1 0 0 0 1 0 1 138 
6 0 0 0 2 0 2 143 140 
6 0 0 0 3 0 2 143 140 
3 0 0 0 2 0 1 141 
2 0 0 0 2 0 1 142 
4 0 0 0 2 0 2 146 144 
9 0 0 0 2 0 2 146 145 
4 0 0 0 2 0 1 145 
3 0 0 0 4 0 1 147 
10 0 0 0 5 0 1 147 
0 0 0 0 0 0 1 148 
0 0 0 0 0 0 4 149 161 183 205 
0 0 0 0 0 0 2 150 152 
3 1 0 0 0 0 1 151 
9 2 0 0 0 0 2 157 153 
1 2 0 0 0 0 2 157 154 
2 4 0 0 0 0 1 154 
5 5 0 0 0 0 1 155 
7 4 0 0 0 0 2 158 156 
4 1 0 0 0 0 1 159 
1 1 0 0 0 0 1 158 
10 3 0 0 0 0 1 160 
1 2 0 0 0 0 1 160 
0 0 0 0 0 0 4 227 239 251 263 
0 0 0 0 0 0 1 162 
6 0 0 1 1 0 2 170 163 
10 0 0 4 1 0 1 164 
1 0 0 1 3 0 2 172 165 
8 0 0 1 3 0 1 166 
3 0 0 2 4 0 1 167 
1 0 0 3 2 0 2 174 168 
9 0 0 2 2 0 1 169 
8 0 0 2 1 0 2 178 171 
2 0 0 3 3 0 2 178 171 
6 0 0 3 2 0 1 173 
6 0 0 2 2 0 1 174 
10 0 0 5 2 0 2 179 175 
5 0 0 3 3 0 2 178 175 
5 0 0 2 3 0 1 176 
5 0 0 2 1 0 1 177 
4 0 0 1 4 0 1 180 
10 0 0 4 4 0 1 180 
1 0 0 4 3 0 1 180 
7 0 0 2 4 0 1 181 
2 0 0 3 2 0 1 182 
0 0 0 0 0 0 1 275 
0 0 0 0 0 0 2 184 195 
7 0 0 1 1 0 2 188 185 
9 0 0 1 1 0 1 186 
1 0 0 3 4 0 1 187 
7 0 0 4 3 0 1 189 
3 0 0 2 3 0 1 189 
9 0 0 4 1 0 2 193 190 
1 0 0 2 1 0 2 198 191 
6 0 0 4 3 0 1 192 
8 0 0 2 1 0 1 194 
5 0 0 1 1 0 1 194 
4 0 0 2 4 0 2 203 196 
8 0 0 3 2 0 1 196 
2 0 0 4 6 0 1 197 
1 0 0 3 3 0 1 199 
2 0 0 2 4 0 1 199 
9 0 0 1 3 0 1 200 
7 0 0 4 1 0 1 201 
2 0 0 3 2 0 1 202 
1 0 0 3 3 0 1 204 
9 0 0 1 3 0 1 204 
0 0 0 0 0 0 1 275 
0 0 0 0 0 0 2 206 225 
3 1 1 0 0 0 1 207 
4 4 2 0 0 0 3 224 223 208 
10 2 4 0 0 0 1 209 
10 2 4 0 0 0 1 210 
3 2 3 0 0 0 1 211 
1 3 3 0 0 0 1 212 
7 2 3 0 0 0 3 222 221 213 
7 1 2 0 0 0 1 214 
5 1 3 0 0 0 1 215 
5 4 2 0 0 0 1 216 
5 5 3 0 0 0 1 217 
4 3 1 0 0 0 1 218 
3 1 4 0 0 0 1 219 
7 3 2 0 0 0 1 220 
2 2 1 0 0 0 1 226 
8 1 3 0 0 0 1 226 
9 5 3 0 0 0 1 226 
8 2 1 0 0 0 1 226 
7 4 3 0 0 0 1 226 
10 2 2 0 0 0 1 226 
0 0 0 0 0 0 1 275 
0 0 0 0 0 0 1 228 
10 0 0 0 1 0 2 230 229 
9 0 0 0 2 0 1 232 
8 0 0 0 2 0 1 231 
10 0 0 0 3 0 1 233 
1 0 0 0 2 0 1 233 
4 0 0 0 4 0 1 234 
10 0 0 0 2 0 1 235 
8 0 0 0 3 0 2 237 236 
5 0 0 0 2 0 1 238 
1 0 0 0 4 0 1 238 
0 0 0 0 0 0 1 275 
0 0 0 0 0 0 1 240 
8 0 0 0 0 1 2 242 241 
5 0 0 0 0 2 1 243 
9 0 0 0 0 5 3 249 248 245 
4 0 0 0 0 3 1 244 
9 0 0 0 0 3 2 248 245 
2 0 0 0 0 3 1 246 
5 0 0 0 0 3 1 247 
1 0 0 0 0 3 1 250 
2 0 0 0 0 1 1 250 
4 0 0 0 0 1 1 250 
0 0 0 0 0 0 1 275 
0 0 0 0 0 0 3 252 253 261 
7 1 0 0 0 0 2 259 254 
2 3 0 0 0 0 1 254 
9 2 0 0 0 0 1 255 
1 2 0 0 0 0 1 256 
1 2 0 0 0 0 1 257 
3 2 0 0 0 0 1 258 
6 2 0 0 0 0 1 260 
3 4 0 0 0 0 1 260 
8 2 0 0 0 0 1 262 
1 5 0 0 0 0 1 262 
0 0 0 0 0 0 1 275 
0 0 0 0 0 0 2 264 265 
9 0 1 0 0 0 2 269 266 
3 0 4 0 0 0 3 269 268 267 
8 0 4 0 0 0 2 268 267 
10 0 3 0 0 0 1 270 
3 0 2 0 0 0 1 270 
8 0 3 0 0 0 1 270 
4 0 3 0 0 0 1 271 
10 0 2 0 0 0 1 272 
8 0 1 0 0 0 1 273 
3 0 2 0 0 0 1 274 
0 0 0 0 0 0 1 275 
0 0 0 0 0 0 0 
